Data path: /scratch/opt/lxu/CFLG/benchmarks/random_B
Instance: r_25_0.2_58.txt
Result path: /scratch/opt/lxu/CFLG/results/random_B
Solver: Gurobi
Time limit: 7200
Formulation: LEFPD
Cover: Large
julia --project=. src/main.jl /scratch/opt/lxu/CFLG/benchmarks/random_B r_25_0.2_58.txt /scratch/opt/lxu/CFLG/results/random_B Gurobi 7200 LEFPD Large
The latest version of Julia in the `release` channel is 1.11.5+0.x64.linux.gnu. You currently have `1.11.4+0.x64.linux.gnu` installed. Run:

  juliaup update

in your terminal shell to install Julia 1.11.5+0.x64.linux.gnu and update the `release` channel to that version.
/scratch/opt/lxu/CFLG/benchmarks/random_B Gurobi 7200.0 /scratch/opt/lxu/CFLG/results/random_B r_25_0.2_58.txt LEFPD Large
/scratch/opt/lxu/CFLG/benchmarks/random_B/r_25_0.2_58.txt

 read graph
data loaded

problem_graph/original graph: node: 25/25 edge: 58/58 dlt: 1.3662485762083236 break_avg_len: 0.6831242881041618 break_max_len: 0.9946460943203358Set parameter TokenServer to value "solice01.zib.de"
Set parameter Threads to value 1
Set parameter OutputFlag to value 1
Gurobi Optimizer version 12.0.1 build v12.0.1rc0 (linux64 - "Debian GNU/Linux 12 (bookworm)")

CPU model: Intel(R) Xeon(R) Gold 5122 CPU @ 3.60GHz, instruction set [SSE2|AVX|AVX2|AVX512]
Thread count: 8 physical cores, 16 logical processors, using up to 1 threads

Non-default parameters:
Threads  1

Optimize a model with 83 rows, 174 columns and 290 nonzeros
Model fingerprint: 0xc8751e0d
Coefficient statistics:
  Matrix range     [1e+00, 1e+00]
  Objective range  [1e+00, 1e+00]
  Bounds range     [1e+00, 1e+00]
  RHS range        [1e+00, 1e+00]
Presolve removed 83 rows and 174 columns
Presolve time: 0.02s
Presolve: All rows and columns removed
Iteration    Objective       Primal Inf.    Dual Inf.      Time
       0    1.0000000e+00   0.000000e+00   0.000000e+00      0s

Solved in 0 iterations and 0.02 seconds (0.00 work units)
Optimal objective  1.000000000e+00

User-callback calls 35, time in user-callback 0.01 sec
elapsed CPU time: 1.227128 seconds
Set parameter TokenServer to value "solice01.zib.de"
Set parameter Threads to value 1
Set parameter OutputFlag to value 1
Set parameter MIPGap to value 0.0001
Set parameter MIPGapAbs to value 0.999998
Set parameter TimeLimit to value 7198.772872

 more cuts:falsefalse
1 0
formulation:LEFPD0 58 25

 model loaded

Gurobi Optimizer version 12.0.1 build v12.0.1rc0 (linux64 - "Debian GNU/Linux 12 (bookworm)")

CPU model: Intel(R) Xeon(R) Gold 5122 CPU @ 3.60GHz, instruction set [SSE2|AVX|AVX2|AVX512]
Thread count: 8 physical cores, 16 logical processors, using up to 1 threads

Non-default parameters:
TimeLimit  7198.772872
MIPGapAbs  0.999998
Threads  1

Optimize a model with 5560 rows, 3634 columns and 16470 nonzeros
Model fingerprint: 0xe4be8ce0
Variable types: 1817 continuous, 1817 integer (1817 binary)
Coefficient statistics:
  Matrix range     [2e-03, 1e+00]
  Objective range  [1e+00, 1e+00]
  Bounds range     [3e-01, 1e+00]
  RHS range        [3e-01, 6e+00]
Found heuristic solution: objective 17.0000000
Presolve removed 1685 rows and 386 columns
Presolve time: 0.09s
Presolved: 3875 rows, 3248 columns, 13958 nonzeros
Variable types: 1589 continuous, 1659 integer (1659 binary)

Root relaxation: objective 1.163893e+00, 2980 iterations, 0.09 seconds (0.15 work units)

    Nodes    |    Current Node    |     Objective Bounds      |     Work
 Expl Unexpl |  Obj  Depth IntInf | Incumbent    BestBd   Gap | It/Node Time

     0     0    1.16389    0  249   17.00000    1.16389  93.2%     -    0s
H    0     0                      14.0000000    1.16389  91.7%     -    0s
     0     0    1.35193    0  290   14.00000    1.35193  90.3%     -    0s
     0     0    1.43514    0  305   14.00000    1.43514  89.7%     -    0s
H    0     0                      11.0000000    1.43519  87.0%     -    0s
     0     0    1.43519    0  306   11.00000    1.43519  87.0%     -    0s
     0     0    1.53483    0  336   11.00000    1.53483  86.0%     -    1s
H    0     0                       8.0000000    1.53553  80.8%     -    1s
H    0     0                       7.0000000    1.53553  78.1%     -    1s
     0     0    1.54372    0  321    7.00000    1.54372  77.9%     -    1s
     0     0    1.54372    0  321    7.00000    1.54372  77.9%     -    1s
     0     0    1.58367    0  311    7.00000    1.58367  77.4%     -    1s
     0     0    1.58801    0  333    7.00000    1.58801  77.3%     -    1s
     0     0    1.58812    0  308    7.00000    1.58812  77.3%     -    1s
     0     0    1.59242    0  360    7.00000    1.59242  77.3%     -    1s
H    0     0                       6.0000000    1.59270  73.5%     -    1s
     0     0    1.59327    0  363    6.00000    1.59327  73.4%     -    1s
     0     0    1.59346    0  377    6.00000    1.59346  73.4%     -    1s
     0     0    1.59352    0  355    6.00000    1.59352  73.4%     -    1s
     0     0    1.60032    0  366    6.00000    1.60032  73.3%     -    1s
     0     0    1.60033    0  367    6.00000    1.60033  73.3%     -    1s
     0     0    1.60690    0  366    6.00000    1.60690  73.2%     -    1s
     0     0    1.60734    0  385    6.00000    1.60734  73.2%     -    1s
     0     0    1.60739    0  361    6.00000    1.60739  73.2%     -    1s
     0     0    1.61017    0  375    6.00000    1.61017  73.2%     -    2s
     0     0    1.61029    0  373    6.00000    1.61029  73.2%     -    2s
     0     0    1.61336    0  391    6.00000    1.61336  73.1%     -    2s
     0     0    1.61430    0  391    6.00000    1.61430  73.1%     -    2s
     0     0    1.61434    0  395    6.00000    1.61434  73.1%     -    2s
     0     0    1.61767    0  401    6.00000    1.61767  73.0%     -    2s
     0     0    1.61921    0  396    6.00000    1.61921  73.0%     -    2s
     0     0    1.61930    0  412    6.00000    1.61930  73.0%     -    2s
     0     0    1.62194    0  406    6.00000    1.62194  73.0%     -    2s
     0     0    1.62370    0  396    6.00000    1.62370  72.9%     -    2s
     0     0    1.62374    0  398    6.00000    1.62374  72.9%     -    2s
     0     0    1.62468    0  414    6.00000    1.62468  72.9%     -    2s
     0     0    1.62634    0  428    6.00000    1.62634  72.9%     -    2s
     0     0    1.62711    0  401    6.00000    1.62711  72.9%     -    2s
     0     0    1.62731    0  396    6.00000    1.62731  72.9%     -    2s
     0     0    1.62762    0  415    6.00000    1.62762  72.9%     -    2s
     0     0    1.62765    0  417    6.00000    1.62765  72.9%     -    2s
     0     0    1.62895    0  373    6.00000    1.62895  72.9%     -    2s
     0     0    1.62930    0  401    6.00000    1.62930  72.8%     -    2s
     0     0    1.62930    0  402    6.00000    1.62930  72.8%     -    2s
     0     0    1.63054    0  419    6.00000    1.63054  72.8%     -    3s
     0     0    1.63059    0  378    6.00000    1.63059  72.8%     -    3s
H    0     0                       5.0000000    1.63064  67.4%     -    3s
H    0     0                       4.0000000    1.63068  59.2%     -    4s
     0     2    1.63068    0  378    4.00000    1.63068  59.2%     -    4s
   105    85    2.06479    2  273    4.00000    1.69098  57.7%   121    5s
   689   425    2.19483    8  159    4.00000    1.87743  53.1%   105   10s
   706   437    2.14107   26  345    4.00000    1.87743  53.1%   102   15s
   839   457    2.20254   29  188    4.00000    1.95382  51.2%   141   20s
  1117   440    2.35714   27  114    4.00000    2.00000  50.0%   146   25s
  1527   434    2.48146   34  144    4.00000    2.16667  45.8%   137   30s
  1952   383     cutoff   32         4.00000    2.33333  41.7%   140   35s
  2438   450     cutoff   32         4.00000    2.45860  38.5%   139   40s
  3111   529    2.61486   29   52    4.00000    2.59874  35.0%   133   45s
  3859   556    3.00000   34   32    4.00000    2.78253  30.4%   126   50s
  4840   353     cutoff   32         4.00000    3.00000  25.0%   121   55s
  5445   290     cutoff   45         4.00000    3.00000  25.0%   117   60s
  6296   108 infeasible   44         4.00000    3.00000  25.0%   117   65s

Cutting planes:
  Cover: 60
  Implied bound: 56
  MIR: 41
  Flow cover: 27
  GUB cover: 42
  Zero half: 11
  RLT: 74
  Relax-and-lift: 31
  BQP: 62

Explored 6726 nodes (815442 simplex iterations) in 68.40 seconds (73.57 work units)
Thread count was 1 (of 16 available processors)

Solution count 8: 4 5 6 ... 17

Optimal solution found (tolerance 1.00e-04)
Best objective 4.000000000000e+00, best bound 4.000000000000e+00, gap 0.0000%

User-callback calls 36746, time in user-callback 0.03 sec

 sepatime0 0 0
4.0Stat(MathOptInterface.OPTIMAL, 4.0, 4.0, 0.0, 0.0, 1.227128, 68.40191388130188, 6726, Main.CFLG.LEFPD, "", #undef)
